
******************************************************************************
This program contains Ipopt, a library for large-scale nonlinear optimization.
 Ipopt is released as open source code under the Eclipse Public License (EPL).
         For more information visit http://projects.coin-or.org/Ipopt

This version of Ipopt was compiled from source code available at
    https://github.com/IDAES/Ipopt as part of the Institute for the Design of
    Advanced Energy Systems Process Systems Engineering Framework (IDAES PSE
    Framework) Copyright (c) 2018-2019. See https://github.com/IDAES/idaes-pse.

This version of Ipopt was compiled using HSL, a collection of Fortran codes
    for large-scale scientific computation.  All technical papers, sales and
    publicity material resulting from use of the HSL codes within IPOPT must
    contain the following acknowledgement:
        HSL, a collection of Fortran codes for large-scale scientific
        computation. See http://www.hsl.rl.ac.uk.
******************************************************************************

This is Ipopt version 3.13.2, running with linear solver ma27.

Number of nonzeros in equality constraint Jacobian...:      808
Number of nonzeros in inequality constraint Jacobian.:        0
Number of nonzeros in Lagrangian Hessian.............:      702

Total number of variables............................:      351
                     variables with only lower bounds:      108
                variables with lower and upper bounds:      189
                     variables with only upper bounds:        0
Total number of equality constraints.................:      350
Total number of inequality constraints...............:        0
        inequality constraints with only lower bounds:        0
   inequality constraints with lower and upper bounds:        0
        inequality constraints with only upper bounds:        0

iter    objective    inf_pr   inf_du lg(mu)  ||d||  lg(rg) alpha_du alpha_pr  ls
   0  0.0000000e+00 4.84e-01 2.02e-28  -1.0 0.00e+00    -  0.00e+00 0.00e+00   0
   1  1.1593261e+00 6.98e-01 1.03e+05  -1.0 2.87e+05    -  2.93e-01 2.32e-01h  1
   2  1.2933306e+00 6.85e-01 1.01e+05  -1.0 2.44e+05    -  7.00e-01 1.60e-02h  1
   3  3.9941910e+00 5.41e-01 8.17e+04  -1.0 3.12e+05    -  7.24e-01 2.02e-01h  1
   4  3.7048853e+01 6.84e-02 2.30e+04  -1.0 2.68e+05    -  7.65e-01 9.90e-01h  1
   5  4.5029113e+01 1.15e-03 8.32e+02  -1.0 4.19e+04    -  9.58e-01 9.90e-01h  1
   6  4.5253771e+01 1.22e-05 1.16e+01  -1.0 1.15e+03    -  9.90e-01 9.90e-01h  1
   7  4.5254659e+01 1.20e-05 1.62e+07  -1.0 5.10e+02    -  9.90e-01 1.55e-02f  7
   8  4.5258190e+01 1.16e-05 3.18e+07  -1.0 1.03e+03    -  9.91e-01 3.09e-02f  6
   9  4.5369758e+01 1.16e-04 4.92e+05  -1.0 1.03e+03    -  1.00e+00 9.90e-01H  1
iter    objective    inf_pr   inf_du lg(mu)  ||d||  lg(rg) alpha_du alpha_pr  ls
  10  4.5369142e+01 1.12e-06 1.74e+07  -1.0 5.93e+00    -  1.00e+00 9.90e-01h  1
  11  4.5369142e+01 1.12e-08 1.74e+09  -1.0 3.97e-03    -  1.00e+00 9.90e-01h  1
  12  4.5369142e+01 1.12e-10 1.74e+11  -1.0 4.10e-05    -  1.00e+00 9.90e-01h  1
In iteration 12, 27 Slacks too small, adjusting variable bounds
  13  4.5369142e+01 1.75e-12 1.74e+13  -1.0 4.23e-07    -  1.00e+00 9.90e-01h  1
  14  4.5369142e+01 1.02e-12 3.67e-01  -1.0 2.87e-07    -  1.00e+00 1.00e+00H  1
  15  4.5369140e+01 2.58e-12 1.77e+13  -9.0 1.20e+03    -  9.97e-01 1.32e-05f 17
  16  4.5369139e+01 7.25e-13 1.77e+13  -9.0 1.04e+03    -  9.98e-01 7.63e-06f 18
  17  4.5369136e+01 6.09e-13 1.77e+13  -9.0 1.04e+03    -  1.00e+00 3.05e-05f 16
  18  4.5369134e+01 2.44e-12 1.77e+13  -9.0 1.04e+03    -  1.00e+00 1.53e-05f 17
  19  4.5369131e+01 1.52e-12 1.77e+13  -9.0 1.04e+03    -  1.00e+00 3.05e-05f 16
iter    objective    inf_pr   inf_du lg(mu)  ||d||  lg(rg) alpha_du alpha_pr  ls
  20  4.5256572e+01 1.03e-03 6.45e+06  -9.0 1.04e+03    -  1.00e+00 1.00e+00f  1
  21  4.5254699e+01 1.95e-09 6.50e-04  -9.0 1.70e+01    -  1.00e+00 1.00e+00h  1
  22  4.5254699e+01 2.81e-12 2.91e-11  -9.0 1.96e-04    -  1.00e+00 1.00e+00h  1

Number of Iterations....: 22

                                   (scaled)                 (unscaled)
Objective...............:   4.5254698911321213e+01    4.5254698911321213e+01
Dual infeasibility......:   2.9103830456733704e-11    2.9103830456733704e-11
Constraint violation....:   2.8106406091410463e-12    2.8106406091410463e-12
Complementarity.........:   9.0909090909098013e-10    9.0909090909098013e-10
Overall NLP error.......:   1.0248281623410216e-11    9.0909090909098013e-10


Number of objective function evaluations             = 141
Number of objective gradient evaluations             = 23
Number of equality constraint evaluations            = 141
Number of inequality constraint evaluations          = 0
Number of equality constraint Jacobian evaluations   = 23
Number of inequality constraint Jacobian evaluations = 0
Number of Lagrangian Hessian evaluations             = 22
Total CPU secs in IPOPT (w/o function evaluations)   =      0.051
Total CPU secs in NLP function evaluations           =      1.111

EXIT: Optimal Solution Found.
